p cnf 738 1995
a 1 2 3 4 5 6 7 8 17 18 19 20 21 22 23 24 25 26 27 28 29 30 31 32 33 34 35 36 37 38 39 40 41 42 43 44 45 46 47 48 49 50 51 52 53 54 55 56 57 58 59 60 61 62 63 64 65 66 67 68 69 70 71 72 73 74 75 76 77 78 79 80 81 82 0
e 9 10 11 12 13 14 15 16 83 84 85 86 87 88 89 90 91 92 93 94 95 96 97 98 99 100 101 102 103 104 105 106 107 108 109 110 111 112 113 114 115 116 117 118 119 120 121 122 123 124 125 126 127 128 129 130 131 132 133 134 135 136 137 138 139 140 141 142 143 144 145 146 147 148 149 150 151 152 153 154 155 156 157 158 159 160 161 162 163 164 165 166 167 168 169 170 171 172 173 174 175 176 177 178 179 180 181 182 183 184 185 186 187 188 189 190 191 192 193 194 195 196 197 198 199 200 201 202 203 204 205 206 207 208 209 210 211 212 213 214 215 216 217 218 219 220 221 222 223 224 225 226 227 228 229 230 231 232 233 234 235 236 237 238 239 240 241 242 243 244 245 246 247 248 249 250 251 252 253 254 255 256 257 258 259 260 261 262 263 264 265 266 267 268 269 270 271 272 273 274 275 276 277 278 279 280 281 282 283 284 285 286 287 288 289 290 291 292 293 294 295 296 297 298 299 300 301 302 303 304 305 306 307 308 309 310 311 312 313 314 315 316 317 318 319 320 321 322 323 324 325 326 327 328 329 330 331 332 333 334 335 336 337 338 339 340 341 342 343 344 345 346 347 348 349 350 351 352 353 354 355 356 357 358 359 360 361 362 363 364 365 366 367 368 369 370 371 372 373 374 375 376 377 378 379 380 381 382 383 384 385 386 387 388 389 390 391 392 393 394 395 396 397 398 399 400 401 402 403 404 405 406 407 408 409 410 411 412 413 414 415 416 417 418 419 420 421 422 423 424 425 426 427 428 429 430 431 432 433 434 435 436 437 438 439 440 441 442 443 444 445 446 447 448 449 450 451 452 453 454 455 456 457 458 459 460 461 462 463 464 465 466 467 468 469 470 471 472 473 474 475 476 477 478 479 480 481 482 483 484 485 486 487 488 489 490 491 492 493 494 495 496 497 498 499 500 501 502 503 504 505 506 507 508 509 510 511 512 513 514 515 516 517 518 519 520 521 522 523 524 525 526 527 528 529 530 531 532 533 534 535 536 537 538 539 540 541 542 543 544 545 546 547 548 549 550 551 552 553 554 555 556 557 558 559 560 561 562 563 564 565 566 567 568 569 570 571 572 573 574 575 576 577 578 579 580 581 582 583 584 585 586 587 588 589 590 591 592 593 594 595 596 597 598 599 600 601 602 603 604 605 606 607 608 609 610 611 612 613 614 615 616 617 618 619 620 621 622 623 624 625 626 627 628 629 630 631 632 633 634 635 636 637 638 639 640 641 642 643 644 645 646 647 648 649 650 651 652 653 654 655 656 657 658 659 660 661 662 663 664 665 666 667 668 669 670 671 672 673 674 675 676 677 678 679 680 681 682 683 684 685 686 687 688 689 690 691 692 693 694 695 696 697 698 699 700 701 702 703 704 705 706 707 708 709 710 711 712 713 714 715 716 717 718 719 720 721 722 723 724 725 726 727 728 729 730 731 732 733 734 735 736 737 738 0
-738 0
738 -536 0
738 -585 0
738 -600 0
738 -615 0
738 -624 0
738 -633 0
738 -650 0
738 -659 0
738 -668 0
738 -677 0
738 -686 0
738 -695 0
738 -704 0
738 -713 0
738 -722 0
738 -737 0
5 4 6 3 2 1 -535 -534 -736 737 0
736 -729 0
736 -735 0
-531 -526 -582 -647 -734 735 0
734 -733 0
734 -336 0
734 -337 0
734 -338 0
734 -339 0
-732 -731 -730 733 0
732 -359 0
732 -435 0
732 -362 0
732 -363 0
732 -365 0
732 -436 0
732 -437 0
732 -438 0
732 -55 0
732 -54 0
732 -53 0
732 -52 0
732 -51 0
732 -50 0
732 -49 0
731 -430 0
731 -431 0
731 -352 0
731 -432 0
731 -354 0
731 -356 0
731 -357 0
731 -433 0
731 -42 0
731 -41 0
731 -40 0
731 -39 0
731 -38 0
731 -37 0
731 -36 0
730 -341 0
730 -425 0
730 -426 0
730 -345 0
730 -427 0
730 -346 0
730 -348 0
730 -428 0
730 -29 0
730 -28 0
730 -27 0
730 -26 0
730 -25 0
730 -24 0
730 -23 0
-306 -305 -304 -303 -728 729 0
728 -727 0
728 -639 0
728 -558 0
728 -301 0
-114 -113 -112 -111 -726 727 0
726 -723 0
726 -724 0
726 -725 0
54 53 55 52 50 51 49 -213 -212 -211 -140 -138 -137 -210 -134 725 0
39 38 37 36 40 42 41 -208 -132 -131 -129 -207 -127 -206 -205 724 0
25 24 23 28 29 27 26 -203 -123 -121 -202 -120 -201 -200 -116 723 0
5 4 8 3 2 1 -535 -534 -721 722 0
721 -717 0
721 -720 0
-531 -501 -594 -500 -499 -593 -719 -718 720 0
719 -507 0
719 -511 0
718 -573 0
718 -577 0
-306 -305 -304 -303 -716 717 0
716 -714 0
716 -715 0
716 -586 0
716 -274 0
716 -275 0
716 -587 0
716 -276 0
-286 -282 715 0
-553 -549 714 0
7 4 6 8 3 2 -535 -534 -712 713 0
712 -708 0
712 -711 0
-531 -487 -486 -485 -484 -475 -710 -709 711 0
710 -569 0
710 -507 0
709 -577 0
709 -525 0
-306 -305 -304 -303 -707 708 0
707 -705 0
707 -706 0
707 -250 0
707 -259 0
707 -260 0
707 -261 0
707 -262 0
-282 -545 706 0
-300 -553 705 0
7 5 4 6 3 2 -535 -534 -703 704 0
703 -699 0
703 -702 0
-531 -524 -523 -518 -513 -512 -701 -700 702 0
701 -488 0
701 -581 0
700 -507 0
700 -610 0
-306 -305 -304 -303 -698 699 0
698 -696 0
698 -697 0
698 -287 0
698 -288 0
698 -293 0
698 -298 0
698 -299 0
-557 -263 697 0
-603 -282 696 0
7 5 4 8 3 2 -535 -534 -694 695 0
694 -690 0
694 -693 0
-531 -506 -505 -504 -503 -498 -692 -691 693 0
692 -488 0
692 -573 0
691 -595 0
691 -525 0
-306 -305 -304 -303 -689 690 0
689 -687 0
689 -688 0
689 -273 0
689 -278 0
689 -279 0
689 -280 0
689 -281 0
-549 -263 688 0
-300 -588 687 0
4 6 8 3 2 1 -535 -534 -685 686 0
685 -681 0
685 -684 0
-531 -469 -576 -575 -468 -467 -683 -682 684 0
683 -488 0
683 -511 0
682 -569 0
682 -595 0
-306 -305 -304 -303 -680 681 0
680 -678 0
680 -679 0
680 -242 0
680 -243 0
680 -551 0
680 -552 0
680 -244 0
-286 -263 679 0
-588 -545 678 0
5 6 8 3 2 1 -535 -534 -676 677 0
676 -672 0
676 -675 0
-531 -423 -510 -509 -418 -385 -674 -673 675 0
674 -462 0
674 -577 0
673 -493 0
673 -595 0
-306 -305 -304 -303 -671 672 0
671 -669 0
671 -670 0
671 -160 0
671 -193 0
671 -284 0
671 -285 0
671 -198 0
-553 -237 670 0
-588 -268 669 0
7 5 6 8 2 1 -535 -534 -667 668 0
667 -663 0
667 -666 0
-531 -452 -451 -446 -492 -490 -665 -664 666 0
665 -462 0
665 -569 0
664 -610 0
664 -511 0
-306 -305 -304 -303 -662 663 0
662 -660 0
662 -661 0
662 -265 0
662 -267 0
662 -221 0
662 -226 0
662 -227 0
-545 -237 661 0
-286 -603 660 0
7 5 4 6 2 1 -535 -534 -658 659 0
658 -654 0
658 -657 0
-531 -521 -520 -519 -609 -608 -656 -655 657 0
656 -493 0
656 -525 0
655 -569 0
655 -581 0
-306 -305 -304 -303 -653 654 0
653 -651 0
653 -652 0
653 -601 0
653 -602 0
653 -294 0
653 -295 0
653 -296 0
-300 -268 652 0
-557 -545 651 0
7 5 4 8 2 1 -535 -534 -649 650 0
649 -641 0
649 -648 0
-531 -647 -508 -574 -646 648 0
647 -595 0
647 -610 0
646 -645 0
646 -336 0
646 -337 0
646 -338 0
646 -339 0
-644 -643 -642 645 0
644 -396 0
644 -412 0
644 -397 0
644 -413 0
644 -414 0
644 -398 0
644 -415 0
644 -399 0
644 -73 0
644 -69 0
644 -55 0
644 -54 0
644 -53 0
644 -52 0
644 -49 0
643 -391 0
643 -407 0
643 -392 0
643 -393 0
643 -394 0
643 -408 0
643 -409 0
643 -410 0
643 -72 0
643 -66 0
643 -42 0
643 -41 0
643 -40 0
643 -39 0
643 -36 0
642 -386 0
642 -387 0
642 -402 0
642 -403 0
642 -388 0
642 -404 0
642 -389 0
642 -405 0
642 -71 0
642 -63 0
642 -29 0
642 -28 0
642 -27 0
642 -26 0
642 -23 0
-306 -305 -304 -303 -640 641 0
640 -638 0
640 -550 0
640 -283 0
640 -639 0
-603 -588 639 0
-114 -113 -112 -111 -637 638 0
637 -634 0
637 -635 0
637 -636 0
54 53 55 52 69 49 73 -174 -190 -173 -189 -188 -172 -187 -171 636 0
39 36 66 40 72 42 41 -185 -184 -183 -169 -168 -167 -182 -166 635 0
23 28 29 27 26 63 71 -180 -164 -179 -163 -178 -177 -162 -161 634 0
7 4 6 8 2 1 -535 -534 -632 633 0
632 -628 0
632 -631 0
-531 -478 -477 -476 -568 -566 -630 -629 631 0
630 -493 0
630 -488 0
629 -610 0
629 -577 0
-306 -305 -304 -303 -627 628 0
627 -625 0
627 -626 0
627 -542 0
627 -544 0
627 -251 0
627 -252 0
627 -253 0
-263 -268 626 0
-553 -603 625 0
7 5 6 8 3 1 -535 -534 -623 624 0
623 -619 0
623 -622 0
-531 -461 -460 -459 -458 -441 -621 -620 622 0
621 -493 0
621 -573 0
620 -581 0
620 -511 0
-306 -305 -304 -303 -618 619 0
618 -616 0
618 -617 0
618 -216 0
618 -233 0
618 -234 0
618 -235 0
618 -236 0
-549 -268 617 0
-286 -557 616 0
7 5 4 6 3 1 -535 -534 -614 615 0
614 -607 0
614 -613 0
-531 -516 -515 -514 -580 -579 -612 -611 613 0
612 -462 0
612 -525 0
611 -573 0
611 -610 0
-521 -520 -519 -609 -608 610 0
609 -517 0
609 -445 0
609 -336 0
609 -337 0
609 -338 0
609 -339 0
608 -578 0
608 -417 0
608 -336 0
608 -337 0
608 -338 0
608 -339 0
-306 -305 -304 -303 -606 607 0
606 -604 0
606 -605 0
606 -555 0
606 -556 0
606 -289 0
606 -290 0
606 -291 0
-300 -237 605 0
-603 -549 604 0
603 -601 0
603 -602 0
603 -294 0
603 -295 0
603 -296 0
-114 -113 -112 -111 -220 -292 602 0
-114 -113 -112 -111 -192 -554 601 0
7 5 4 8 3 1 -535 -534 -599 600 0
599 -592 0
599 -598 0
-531 -496 -495 -494 -572 -571 -597 -596 598 0
597 -462 0
597 -507 0
596 -595 0
596 -581 0
-501 -594 -500 -499 -593 595 0
594 -497 0
594 -368 0
594 -336 0
594 -337 0
594 -338 0
594 -339 0
593 -570 0
593 -422 0
593 -336 0
593 -337 0
593 -338 0
593 -339 0
-306 -305 -304 -303 -591 592 0
591 -589 0
591 -590 0
591 -547 0
591 -548 0
591 -269 0
591 -270 0
591 -271 0
-282 -237 590 0
-557 -588 589 0
588 -586 0
588 -274 0
588 -275 0
588 -587 0
588 -276 0
-114 -113 -112 -111 -143 -272 587 0
-114 -113 -112 -111 -197 -546 586 0
7 4 6 8 3 1 -535 -534 -584 585 0
584 -560 0
584 -583 0
-531 -582 -574 -489 -565 583 0
582 -577 0
582 -581 0
-516 -515 -514 -580 -579 581 0
580 -457 0
580 -522 0
580 -336 0
580 -337 0
580 -338 0
580 -339 0
579 -578 0
579 -384 0
579 -336 0
579 -337 0
579 -338 0
579 -339 0
-524 -513 -512 578 0
-469 -576 -575 -468 -467 577 0
576 -479 0
576 -401 0
576 -336 0
576 -337 0
576 -338 0
576 -339 0
575 -567 0
575 -422 0
575 -336 0
575 -337 0
575 -338 0
575 -339 0
574 -569 0
574 -573 0
-496 -495 -494 -572 -571 573 0
572 -502 0
572 -440 0
572 -336 0
572 -337 0
572 -338 0
572 -339 0
571 -570 0
571 -384 0
571 -336 0
571 -337 0
571 -338 0
571 -339 0
-506 -505 -504 570 0
-478 -477 -476 -568 -566 569 0
568 -567 0
568 -417 0
568 -336 0
568 -337 0
568 -338 0
568 -339 0
-487 -486 -485 567 0
566 -470 0
566 -450 0
566 -336 0
566 -337 0
566 -338 0
566 -339 0
565 -564 0
565 -336 0
565 -337 0
565 -338 0
565 -339 0
-563 -562 -561 564 0
563 -379 0
563 -360 0
563 -361 0
563 -364 0
563 -366 0
563 -380 0
563 -381 0
563 -73 0
563 -69 0
563 -55 0
563 -54 0
563 -53 0
563 -52 0
563 -49 0
563 -382 0
562 -350 0
562 -351 0
562 -353 0
562 -355 0
562 -374 0
562 -375 0
562 -376 0
562 -72 0
562 -66 0
562 -42 0
562 -41 0
562 -40 0
562 -377 0
562 -39 0
562 -36 0
561 -342 0
561 -343 0
561 -344 0
561 -369 0
561 -370 0
561 -371 0
561 -347 0
561 -372 0
561 -71 0
561 -63 0
561 -29 0
561 -28 0
561 -27 0
561 -26 0
561 -23 0
-306 -305 -304 -303 -559 560 0
559 -541 0
559 -264 0
559 -550 0
559 -558 0
-557 -553 558 0
557 -555 0
557 -556 0
557 -289 0
557 -290 0
557 -291 0
-114 -113 -112 -111 -297 -232 556 0
-114 -113 -112 -111 -159 -554 555 0
554 -287 0
554 -288 0
554 -299 0
553 -242 0
553 -243 0
553 -551 0
553 -552 0
553 -244 0
-114 -113 -112 -111 -176 -254 552 0
-114 -113 -112 -111 -197 -543 551 0
-549 -545 550 0
549 -547 0
549 -548 0
549 -269 0
549 -270 0
549 -271 0
-114 -113 -112 -111 -215 -277 548 0
-114 -113 -112 -111 -159 -546 547 0
546 -279 0
546 -280 0
546 -281 0
545 -542 0
545 -544 0
545 -251 0
545 -252 0
545 -253 0
-114 -113 -112 -111 -192 -543 544 0
543 -260 0
543 -261 0
543 -262 0
-114 -113 -112 -111 -225 -245 542 0
-114 -113 -112 -111 -540 541 0
540 -537 0
540 -538 0
540 -539 0
-157 54 53 55 52 69 49 73 -156 -155 -141 -139 -136 -135 -154 539 0
-152 39 36 66 40 72 42 41 -151 -150 -149 -130 -128 -126 -125 538 0
23 28 29 27 26 63 71 -147 -146 -122 -145 -144 -119 -118 -117 537 0
7 5 6 8 3 2 -535 -534 -533 536 0
535 -7 0
535 -3 0
535 -2 0
535 -1 0
534 -8 0
534 -6 0
534 -5 0
534 -4 0
533 -307 0
533 -532 0
-531 -526 -508 -489 -340 532 0
531 -527 0
531 -528 0
531 -529 0
531 -530 0
13 14 530 0
9 10 529 0
12 11 528 0
16 15 527 0
526 -511 0
526 -525 0
-524 -523 -518 -513 -512 525 0
524 -474 0
524 -336 0
524 -337 0
524 -338 0
524 -339 0
523 -483 0
523 -522 0
523 -336 0
523 -337 0
523 -338 0
523 -339 0
-521 -520 -519 522 0
521 -450 0
521 -336 0
521 -337 0
521 -338 0
521 -339 0
520 -440 0
520 -445 0
520 -336 0
520 -337 0
520 -338 0
520 -339 0
519 -417 0
519 -474 0
519 -336 0
519 -337 0
519 -338 0
519 -339 0
518 -466 0
518 -517 0
518 -336 0
518 -337 0
518 -338 0
518 -339 0
-516 -515 -514 517 0
516 -440 0
516 -336 0
516 -337 0
516 -338 0
516 -339 0
515 -457 0
515 -450 0
515 -336 0
515 -337 0
515 -338 0
515 -339 0
514 -384 0
514 -474 0
514 -336 0
514 -337 0
514 -338 0
514 -339 0
513 -483 0
513 -450 0
513 -336 0
513 -337 0
513 -338 0
513 -339 0
512 -466 0
512 -440 0
512 -336 0
512 -337 0
512 -338 0
512 -339 0
-423 -510 -509 -418 -385 511 0
510 -401 0
510 -453 0
510 -336 0
510 -337 0
510 -338 0
510 -339 0
509 -368 0
509 -491 0
509 -336 0
509 -337 0
509 -338 0
509 -339 0
508 -493 0
508 -507 0
-506 -505 -504 -503 -498 507 0
506 -483 0
506 -336 0
506 -337 0
506 -338 0
506 -339 0
505 -401 0
505 -474 0
505 -336 0
505 -337 0
505 -338 0
505 -339 0
504 -466 0
504 -457 0
504 -336 0
504 -337 0
504 -338 0
504 -339 0
503 -502 0
503 -474 0
503 -336 0
503 -337 0
503 -338 0
503 -339 0
-501 -500 -499 502 0
501 -401 0
501 -336 0
501 -337 0
501 -338 0
501 -339 0
500 -368 0
500 -457 0
500 -336 0
500 -337 0
500 -338 0
500 -339 0
499 -422 0
499 -483 0
499 -336 0
499 -337 0
499 -338 0
499 -339 0
498 -497 0
498 -466 0
498 -336 0
498 -337 0
498 -338 0
498 -339 0
-496 -495 -494 497 0
496 -457 0
496 -336 0
496 -337 0
496 -338 0
496 -339 0
495 -401 0
495 -440 0
495 -336 0
495 -337 0
495 -338 0
495 -339 0
494 -384 0
494 -483 0
494 -336 0
494 -337 0
494 -338 0
494 -339 0
-452 -451 -446 -492 -490 493 0
492 -491 0
492 -445 0
492 -336 0
492 -337 0
492 -338 0
492 -339 0
-461 -460 -459 491 0
490 -424 0
490 -450 0
490 -336 0
490 -337 0
490 -338 0
490 -339 0
489 -462 0
489 -488 0
-487 -486 -485 -484 -475 488 0
487 -466 0
487 -336 0
487 -337 0
487 -338 0
487 -339 0
486 -368 0
486 -474 0
486 -336 0
486 -337 0
486 -338 0
486 -339 0
485 -483 0
485 -445 0
485 -336 0
485 -337 0
485 -338 0
485 -339 0
484 -479 0
484 -483 0
484 -336 0
484 -337 0
484 -338 0
484 -339 0
-482 -481 -480 483 0
482 -396 0
482 -328 0
482 -330 0
482 -331 0
482 -397 0
482 -332 0
482 -398 0
482 -399 0
482 -82 0
482 -73 0
482 -69 0
482 -68 0
482 -55 0
482 -54 0
482 -53 0
481 -391 0
481 -319 0
481 -320 0
481 -392 0
481 -393 0
481 -394 0
481 -322 0
481 -324 0
481 -81 0
481 -72 0
481 -66 0
481 -65 0
481 -42 0
481 -41 0
481 -40 0
480 -386 0
480 -387 0
480 -309 0
480 -310 0
480 -313 0
480 -388 0
480 -389 0
480 -314 0
480 -80 0
480 -71 0
480 -63 0
480 -62 0
480 -29 0
480 -28 0
480 -27 0
-478 -477 -476 479 0
478 -445 0
478 -336 0
478 -337 0
478 -338 0
478 -339 0
477 -368 0
477 -450 0
477 -336 0
477 -337 0
477 -338 0
477 -339 0
476 -466 0
476 -417 0
476 -336 0
476 -337 0
476 -338 0
476 -339 0
475 -470 0
475 -474 0
475 -336 0
475 -337 0
475 -338 0
475 -339 0
-473 -472 -471 474 0
473 -435 0
473 -328 0
473 -330 0
473 -331 0
473 -436 0
473 -332 0
473 -437 0
473 -438 0
473 -82 0
473 -73 0
473 -68 0
473 -55 0
473 -54 0
473 -53 0
473 -51 0
472 -430 0
472 -431 0
472 -432 0
472 -319 0
472 -320 0
472 -433 0
472 -322 0
472 -324 0
472 -81 0
472 -72 0
472 -65 0
472 -42 0
472 -41 0
472 -40 0
472 -38 0
471 -425 0
471 -426 0
471 -427 0
471 -309 0
471 -310 0
471 -313 0
471 -314 0
471 -80 0
471 -71 0
471 -62 0
471 -428 0
471 -29 0
471 -28 0
471 -27 0
471 -25 0
-469 -468 -467 470 0
469 -368 0
469 -336 0
469 -337 0
469 -338 0
469 -339 0
468 -401 0
468 -445 0
468 -336 0
468 -337 0
468 -338 0
468 -339 0
467 -422 0
467 -466 0
467 -336 0
467 -337 0
467 -338 0
467 -339 0
-465 -464 -463 466 0
465 -360 0
465 -361 0
465 -364 0
465 -328 0
465 -330 0
465 -331 0
465 -366 0
465 -332 0
465 -82 0
465 -76 0
465 -73 0
465 -69 0
465 -68 0
465 -54 0
465 -53 0
464 -350 0
464 -351 0
464 -353 0
464 -355 0
464 -319 0
464 -320 0
464 -322 0
464 -324 0
464 -81 0
464 -75 0
464 -72 0
464 -66 0
464 -65 0
464 -41 0
464 -40 0
463 -342 0
463 -343 0
463 -344 0
463 -309 0
463 -310 0
463 -313 0
463 -347 0
463 -314 0
463 -80 0
463 -74 0
463 -71 0
463 -63 0
463 -62 0
463 -28 0
463 -27 0
-461 -460 -459 -458 -441 462 0
461 -384 0
461 -336 0
461 -337 0
461 -338 0
461 -339 0
460 -422 0
460 -440 0
460 -336 0
460 -337 0
460 -338 0
460 -339 0
459 -457 0
459 -417 0
459 -336 0
459 -337 0
459 -338 0
459 -339 0
458 -453 0
458 -457 0
458 -336 0
458 -337 0
458 -338 0
458 -339 0
-456 -455 -454 457 0
456 -396 0
456 -379 0
456 -397 0
456 -380 0
456 -381 0
456 -398 0
456 -399 0
456 -76 0
456 -73 0
456 -69 0
456 -68 0
456 -54 0
456 -53 0
456 -52 0
456 -382 0
455 -391 0
455 -374 0
455 -392 0
455 -375 0
455 -393 0
455 -394 0
455 -376 0
455 -75 0
455 -72 0
455 -66 0
455 -65 0
455 -41 0
455 -40 0
455 -377 0
455 -39 0
454 -386 0
454 -387 0
454 -369 0
454 -388 0
454 -389 0
454 -370 0
454 -371 0
454 -372 0
454 -74 0
454 -71 0
454 -63 0
454 -62 0
454 -28 0
454 -27 0
454 -26 0
-452 -451 -446 453 0
452 -417 0
452 -336 0
452 -337 0
452 -338 0
452 -339 0
451 -422 0
451 -450 0
451 -336 0
451 -337 0
451 -338 0
451 -339 0
-449 -448 -447 450 0
449 -412 0
449 -435 0
449 -436 0
449 -413 0
449 -414 0
449 -437 0
449 -438 0
449 -415 0
449 -76 0
449 -73 0
449 -68 0
449 -54 0
449 -53 0
449 -52 0
449 -51 0
448 -430 0
448 -431 0
448 -432 0
448 -407 0
448 -433 0
448 -408 0
448 -409 0
448 -410 0
448 -75 0
448 -72 0
448 -65 0
448 -41 0
448 -40 0
448 -39 0
448 -38 0
447 -402 0
447 -425 0
447 -426 0
447 -427 0
447 -403 0
447 -404 0
447 -405 0
447 -74 0
447 -71 0
447 -62 0
447 -428 0
447 -28 0
447 -27 0
447 -26 0
447 -25 0
446 -384 0
446 -445 0
446 -336 0
446 -337 0
446 -338 0
446 -339 0
-444 -443 -442 445 0
444 -360 0
444 -412 0
444 -361 0
444 -364 0
444 -413 0
444 -366 0
444 -414 0
444 -415 0
444 -73 0
444 -70 0
444 -69 0
444 -68 0
444 -55 0
444 -53 0
444 -52 0
443 -350 0
443 -351 0
443 -353 0
443 -355 0
443 -407 0
443 -408 0
443 -409 0
443 -410 0
443 -72 0
443 -67 0
443 -66 0
443 -65 0
443 -42 0
443 -40 0
443 -39 0
442 -342 0
442 -343 0
442 -344 0
442 -402 0
442 -403 0
442 -404 0
442 -347 0
442 -405 0
442 -71 0
442 -64 0
442 -63 0
442 -62 0
442 -29 0
442 -27 0
442 -26 0
441 -424 0
441 -440 0
441 -336 0
441 -337 0
441 -338 0
441 -339 0
-439 -434 -429 440 0
439 -379 0
439 -435 0
439 -436 0
439 -380 0
439 -437 0
439 -381 0
439 -438 0
439 -73 0
439 -68 0
439 -55 0
439 -54 0
439 -53 0
439 -52 0
439 -51 0
439 -382 0
-10 -61 438 0
9 -57 437 0
-9 -59 436 0
10 -58 435 0
434 -430 0
434 -431 0
434 -432 0
434 -374 0
434 -375 0
434 -433 0
434 -376 0
434 -72 0
434 -65 0
434 -42 0
434 -41 0
434 -40 0
434 -377 0
434 -39 0
434 -38 0
9 -44 433 0
-9 -46 432 0
-10 -48 431 0
10 -45 430 0
429 -425 0
429 -426 0
429 -369 0
429 -427 0
429 -370 0
429 -371 0
429 -372 0
429 -71 0
429 -62 0
429 -428 0
429 -29 0
429 -28 0
429 -27 0
429 -26 0
429 -25 0
-9 -33 428 0
-31 9 427 0
-10 -35 426 0
-32 10 425 0
-423 -418 -385 424 0
423 -422 0
423 -336 0
423 -337 0
423 -338 0
423 -339 0
-421 -420 -419 422 0
421 -359 0
421 -326 0
421 -362 0
421 -363 0
421 -327 0
421 -329 0
421 -365 0
421 -333 0
421 -79 0
421 -69 0
421 -68 0
421 -55 0
421 -54 0
421 -52 0
421 -50 0
420 -317 0
420 -352 0
420 -354 0
420 -318 0
420 -356 0
420 -321 0
420 -357 0
420 -323 0
420 -78 0
420 -66 0
420 -65 0
420 -42 0
420 -41 0
420 -39 0
420 -37 0
419 -341 0
419 -345 0
419 -308 0
419 -346 0
419 -311 0
419 -312 0
419 -348 0
419 -77 0
419 -63 0
419 -62 0
419 -315 0
419 -29 0
419 -28 0
419 -26 0
419 -24 0
418 -401 0
418 -417 0
418 -336 0
418 -337 0
418 -338 0
418 -339 0
-416 -411 -406 417 0
416 -326 0
416 -412 0
416 -327 0
416 -329 0
416 -413 0
416 -414 0
416 -333 0
416 -415 0
416 -79 0
416 -73 0
416 -69 0
416 -68 0
416 -55 0
416 -54 0
416 -52 0
-11 -22 415 0
-12 -60 414 0
-19 11 413 0
12 -56 412 0
411 -317 0
411 -318 0
411 -407 0
411 -321 0
411 -408 0
411 -409 0
411 -410 0
411 -323 0
411 -78 0
411 -72 0
411 -66 0
411 -65 0
411 -42 0
411 -41 0
411 -39 0
-11 -20 410 0
-12 -47 409 0
12 -43 408 0
-18 11 407 0
406 -402 0
406 -308 0
406 -403 0
406 -311 0
406 -312 0
406 -404 0
406 -405 0
406 -77 0
406 -71 0
406 -63 0
406 -62 0
406 -315 0
406 -29 0
406 -28 0
406 -26 0
-11 -21 405 0
-17 11 404 0
-12 -34 403 0
-30 12 402 0
-400 -395 -390 401 0
400 -359 0
400 -396 0
400 -362 0
400 -363 0
400 -397 0
400 -365 0
400 -398 0
400 -399 0
400 -70 0
400 -69 0
400 -68 0
400 -55 0
400 -53 0
400 -52 0
400 -50 0
-12 -61 399 0
-11 -59 398 0
11 -57 397 0
12 -58 396 0
395 -391 0
395 -352 0
395 -354 0
395 -356 0
395 -392 0
395 -357 0
395 -393 0
395 -394 0
395 -67 0
395 -66 0
395 -65 0
395 -42 0
395 -40 0
395 -39 0
395 -37 0
-12 -48 394 0
11 -44 393 0
-11 -46 392 0
12 -45 391 0
390 -341 0
390 -386 0
390 -387 0
390 -345 0
390 -346 0
390 -388 0
390 -389 0
390 -348 0
390 -64 0
390 -63 0
390 -62 0
390 -29 0
390 -27 0
390 -26 0
390 -24 0
-31 11 389 0
-11 -33 388 0
-12 -35 387 0
-32 12 386 0
385 -368 0
385 -384 0
385 -336 0
385 -337 0
385 -338 0
385 -339 0
-383 -378 -373 384 0
383 -326 0
383 -379 0
383 -327 0
383 -329 0
383 -380 0
383 -381 0
383 -333 0
383 -79 0
383 -73 0
383 -70 0
383 -69 0
383 -68 0
383 -55 0
383 -52 0
383 -382 0
-19 13 382 0
-13 -22 381 0
-14 -60 380 0
14 -56 379 0
378 -317 0
378 -318 0
378 -374 0
378 -321 0
378 -375 0
378 -376 0
378 -323 0
378 -78 0
378 -72 0
378 -67 0
378 -66 0
378 -65 0
378 -42 0
378 -377 0
378 -39 0
-13 -20 377 0
-18 13 376 0
14 -43 375 0
-14 -47 374 0
373 -308 0
373 -369 0
373 -311 0
373 -312 0
373 -370 0
373 -371 0
373 -372 0
373 -77 0
373 -71 0
373 -64 0
373 -63 0
373 -62 0
373 -315 0
373 -29 0
373 -26 0
-14 -34 372 0
-13 -21 371 0
-30 14 370 0
-17 13 369 0
-367 -358 -349 368 0
367 -359 0
367 -360 0
367 -361 0
367 -362 0
367 -363 0
367 -364 0
367 -365 0
367 -366 0
367 -69 0
367 -68 0
367 -55 0
367 -54 0
367 -53 0
367 -52 0
367 -50 0
-14 -61 366 0
-10 -60 365 0
13 -57 364 0
-9 -22 363 0
-19 9 362 0
-13 -59 361 0
14 -58 360 0
10 -56 359 0
358 -350 0
358 -351 0
358 -352 0
358 -353 0
358 -354 0
358 -355 0
358 -356 0
358 -357 0
358 -66 0
358 -65 0
358 -42 0
358 -41 0
358 -40 0
358 -39 0
358 -37 0
-9 -20 357 0
-10 -47 356 0
13 -44 355 0
-18 9 354 0
-13 -46 353 0
10 -43 352 0
-14 -48 351 0
14 -45 350 0
349 -341 0
349 -342 0
349 -343 0
349 -344 0
349 -345 0
349 -346 0
349 -347 0
349 -348 0
349 -63 0
349 -62 0
349 -29 0
349 -28 0
349 -27 0
349 -26 0
349 -24 0
-9 -21 348 0
-31 13 347 0
-10 -34 346 0
-17 9 345 0
-14 -35 344 0
-13 -33 343 0
-32 14 342 0
-30 10 341 0
340 -335 0
340 -336 0
340 -337 0
340 -338 0
340 -339 0
-18 17 339 0
-21 20 338 0
-19 18 337 0
-20 22 336 0
-334 -325 -316 335 0
334 -326 0
334 -327 0
334 -328 0
334 -329 0
334 -330 0
334 -331 0
334 -332 0
334 -333 0
334 -82 0
334 -79 0
334 -73 0
334 -69 0
334 -55 0
334 -54 0
334 -49 0
-16 -61 333 0
-15 -22 332 0
-16 -60 331 0
16 -56 330 0
16 -58 329 0
-19 15 328 0
15 -57 327 0
-15 -59 326 0
325 -317 0
325 -318 0
325 -319 0
325 -320 0
325 -321 0
325 -322 0
325 -323 0
325 -324 0
325 -81 0
325 -78 0
325 -72 0
325 -66 0
325 -42 0
325 -41 0
325 -36 0
16 -43 324 0
-16 -48 323 0
-16 -47 322 0
16 -45 321 0
-15 -20 320 0
-18 15 319 0
15 -44 318 0
-15 -46 317 0
316 -308 0
316 -309 0
316 -310 0
316 -311 0
316 -312 0
316 -313 0
316 -314 0
316 -80 0
316 -77 0
316 -71 0
316 -63 0
316 -315 0
316 -29 0
316 -28 0
316 -23 0
-15 -33 315 0
-30 16 314 0
-16 -34 313 0
-16 -35 312 0
-32 16 311 0
-15 -21 310 0
-17 15 309 0
-31 15 308 0
-306 -305 -304 -303 -302 307 0
306 -14 0
306 -13 0
305 -10 0
305 -9 0
304 -12 0
304 -11 0
303 -16 0
303 -15 0
302 -115 0
302 -264 0
302 -283 0
302 -301 0
-300 -286 301 0
300 -287 0
300 -288 0
300 -293 0
300 -298 0
300 -299 0
-114 -113 -112 -111 -249 299 0
-114 -113 -112 -111 -297 -258 298 0
297 -294 0
297 -295 0
297 -296 0
-114 -113 -112 -111 -225 296 0
-114 -113 -112 -111 -220 -215 295 0
-114 -113 -112 -111 -249 -192 294 0
-114 -113 -112 -111 -292 -241 293 0
292 -289 0
292 -290 0
292 -291 0
-114 -113 -112 -111 -215 291 0
-114 -113 -112 -111 -225 -232 290 0
-114 -113 -112 -111 -249 -159 289 0
-114 -113 -112 -111 -225 -258 288 0
-114 -113 -112 -111 -215 -241 287 0
286 -160 0
286 -193 0
286 -284 0
286 -285 0
286 -198 0
-114 -113 -112 -111 -228 -176 285 0
-114 -113 -112 -111 -266 -143 284 0
-282 -268 283 0
282 -273 0
282 -278 0
282 -279 0
282 -280 0
282 -281 0
-114 -113 -112 -111 -258 281 0
-114 -113 -112 -111 -249 -176 280 0
-114 -113 -112 -111 -232 -241 279 0
-114 -113 -112 -111 -249 -277 278 0
277 -274 0
277 -275 0
277 -276 0
-114 -113 -112 -111 -176 276 0
-114 -113 -112 -111 -232 -143 275 0
-114 -113 -112 -111 -258 -197 274 0
-114 -113 -112 -111 -241 -272 273 0
272 -269 0
272 -270 0
272 -271 0
-114 -113 -112 -111 -232 271 0
-114 -113 -112 -111 -215 -176 270 0
-114 -113 -112 -111 -258 -159 269 0
268 -265 0
268 -267 0
268 -221 0
268 -226 0
268 -227 0
-114 -113 -112 -111 -220 -266 267 0
266 -234 0
266 -235 0
266 -236 0
-114 -113 -112 -111 -225 -199 265 0
-263 -237 264 0
263 -250 0
263 -259 0
263 -260 0
263 -261 0
263 -262 0
-114 -113 -112 -111 -241 262 0
-114 -113 -112 -111 -249 -143 261 0
-114 -113 -112 -111 -220 -258 260 0
-114 -113 -112 -111 -258 -254 259 0
258 -255 0
258 -256 0
258 -257 0
54 53 55 69 68 73 82 -174 -173 -107 -172 -106 -105 -103 -171 257 0
81 66 40 65 72 42 -99 41 -97 -169 -168 -167 -95 -94 -166 256 0
28 29 27 63 62 71 80 -89 -164 -163 -88 -85 -84 -162 -161 255 0
254 -251 0
254 -252 0
254 -253 0
-114 -113 -112 -111 -220 253 0
-114 -113 -112 -111 -225 -143 252 0
-114 -113 -112 -111 -192 -241 251 0
-114 -113 -112 -111 -249 -245 250 0
249 -246 0
249 -247 0
249 -248 0
54 53 55 68 51 73 82 -213 -212 -107 -211 -106 -105 -103 -210 248 0
38 81 40 65 72 42 -99 41 -97 -208 -95 -94 -207 -206 -205 247 0
25 28 29 27 -203 62 71 80 -89 -88 -85 -84 -202 -201 -200 246 0
245 -242 0
245 -243 0
245 -244 0
-114 -113 -112 -111 -143 244 0
-114 -113 -112 -111 -220 -176 243 0
-114 -113 -112 -111 -241 -197 242 0
241 -238 0
241 -239 0
241 -240 0
54 53 76 69 68 73 82 -107 -141 -106 -105 -103 -139 -136 -135 240 0
81 66 40 65 75 72 -99 41 -97 -95 -94 -130 -128 -126 -125 239 0
28 27 63 62 74 71 80 -89 -122 -88 -85 -84 -119 -118 -117 238 0
237 -216 0
237 -233 0
237 -234 0
237 -235 0
237 -236 0
-114 -113 -112 -111 -159 236 0
-114 -113 -112 -111 -215 -197 235 0
-114 -113 -112 -111 -192 -232 234 0
-114 -113 -112 -111 -232 -228 233 0
232 -229 0
232 -230 0
232 -231 0
-157 54 53 76 52 69 68 73 -174 -173 -156 -155 -172 -154 -171 231 0
-152 39 66 40 65 75 72 41 -151 -169 -168 -150 -167 -149 -166 230 0
28 27 26 63 62 74 71 -147 -146 -145 -164 -163 -144 -162 -161 229 0
228 -221 0
228 -226 0
228 -227 0
-114 -113 -112 -111 -192 227 0
-114 -113 -112 -111 -225 -197 226 0
225 -222 0
225 -223 0
225 -224 0
54 53 76 52 68 51 73 -190 -213 -212 -189 -188 -211 -210 -187 224 0
39 38 40 65 75 72 41 -185 -184 -183 -208 -182 -207 -206 -205 223 0
25 28 27 26 -203 62 74 71 -180 -179 -178 -202 -201 -200 -177 222 0
-114 -113 -112 -111 -220 -159 221 0
220 -217 0
220 -218 0
220 -219 0
53 55 52 69 68 73 70 -190 -189 -141 -188 -139 -136 -187 -135 219 0
39 67 66 40 65 72 42 -185 -184 -183 -182 -130 -128 -126 -125 218 0
29 27 26 64 63 62 71 -180 -122 -179 -178 -177 -119 -118 -117 217 0
-114 -113 -112 -111 -215 -199 216 0
215 -204 0
215 -209 0
215 -214 0
-157 54 53 55 52 68 51 73 -213 -156 -212 -155 -211 -210 -154 214 0
213 61 0
213 10 0
212 57 0
212 -9 0
211 59 0
211 9 0
210 58 0
210 -10 0
-152 39 38 40 65 72 42 41 -151 -208 -150 -149 -207 -206 -205 209 0
208 44 0
208 -9 0
207 46 0
207 9 0
206 48 0
206 10 0
205 45 0
205 -10 0
25 28 29 27 26 -203 62 71 -147 -146 -145 -202 -144 -201 -200 204 0
203 33 0
203 9 0
202 31 0
202 -9 0
201 35 0
201 10 0
200 32 0
200 -10 0
199 -160 0
199 -193 0
199 -198 0
-114 -113 -112 -111 -197 198 0
197 -194 0
197 -195 0
197 -196 0
54 55 52 50 69 68 79 -108 -140 -104 -102 -138 -137 -101 -134 196 0
39 37 66 65 78 42 41 -98 -132 -96 -131 -93 -129 -127 -92 195 0
24 28 29 26 -90 63 62 77 -123 -87 -86 -121 -83 -120 -116 194 0
-114 -113 -112 -111 -192 -176 193 0
192 -181 0
192 -186 0
192 -191 0
54 55 52 69 68 79 73 -190 -108 -189 -188 -104 -102 -187 -101 191 0
190 11 0
190 22 0
189 60 0
189 12 0
188 19 0
188 -11 0
187 56 0
187 -12 0
39 66 65 78 72 42 41 -98 -185 -184 -183 -96 -182 -93 -92 186 0
185 11 0
185 20 0
184 47 0
184 12 0
183 43 0
183 -12 0
182 18 0
182 -11 0
28 29 26 -90 63 62 77 71 -180 -179 -87 -86 -178 -83 -177 181 0
180 11 0
180 21 0
179 17 0
179 -11 0
178 34 0
178 12 0
177 30 0
177 -12 0
176 -165 0
176 -170 0
176 -175 0
53 55 52 50 69 68 70 -174 -173 -140 -172 -138 -137 -171 -134 175 0
174 61 0
174 12 0
173 59 0
173 11 0
172 57 0
172 -11 0
171 58 0
171 -12 0
39 37 67 66 40 65 42 -169 -168 -132 -167 -131 -129 -127 -166 170 0
169 48 0
169 12 0
168 44 0
168 -11 0
167 46 0
167 11 0
166 45 0
166 -12 0
24 29 27 26 64 63 62 -123 -164 -163 -121 -120 -162 -161 -116 165 0
164 31 0
164 -11 0
163 33 0
163 11 0
162 35 0
162 12 0
161 32 0
161 -12 0
-114 -113 -112 -111 -159 -143 160 0
159 -148 0
159 -153 0
159 -158 0
-157 55 52 69 68 79 73 70 -108 -156 -155 -104 -102 -154 -101 158 0
157 19 0
157 -13 0
156 22 0
156 13 0
155 60 0
155 14 0
154 56 0
154 -14 0
-152 39 67 66 65 78 72 42 -98 -151 -150 -96 -149 -93 -92 153 0
152 20 0
152 13 0
151 18 0
151 -13 0
150 43 0
150 -14 0
149 47 0
149 14 0
29 26 -90 64 63 62 77 71 -147 -146 -145 -87 -86 -144 -83 148 0
147 34 0
147 14 0
146 21 0
146 13 0
145 30 0
145 -14 0
144 17 0
144 -13 0
143 -124 0
143 -133 0
143 -142 0
54 53 55 52 50 69 68 -141 -140 -139 -138 -137 -136 -135 -134 142 0
141 61 0
141 14 0
140 60 0
140 10 0
139 57 0
139 -13 0
138 22 0
138 9 0
137 19 0
137 -9 0
136 59 0
136 13 0
135 58 0
135 -14 0
134 56 0
134 -10 0
39 37 66 40 65 42 41 -132 -131 -130 -129 -128 -127 -126 -125 133 0
132 20 0
132 9 0
131 47 0
131 10 0
130 44 0
130 -13 0
129 18 0
129 -9 0
128 46 0
128 13 0
127 43 0
127 -10 0
126 48 0
126 14 0
125 45 0
125 -14 0
24 28 29 27 26 63 62 -123 -122 -121 -120 -119 -118 -117 -116 124 0
123 21 0
123 9 0
122 31 0
122 -13 0
121 34 0
121 10 0
120 17 0
120 -9 0
119 35 0
119 14 0
118 33 0
118 13 0
117 32 0
117 -14 0
116 30 0
116 -10 0
-114 -113 -112 -111 -110 115 0
114 18 0
114 -17 0
113 21 0
113 -20 0
112 19 0
112 -18 0
111 20 0
111 -22 0
110 -91 0
110 -100 0
110 -109 0
54 55 69 49 79 73 82 -108 -107 -106 -105 -104 -103 -102 -101 109 0
108 61 0
108 16 0
107 15 0
107 22 0
106 60 0
106 16 0
105 56 0
105 -16 0
104 58 0
104 -16 0
103 19 0
103 -15 0
102 57 0
102 -15 0
101 59 0
101 15 0
36 81 66 78 72 42 -99 41 -98 -97 -96 -95 -94 -93 -92 100 0
99 43 0
99 -16 0
98 48 0
98 16 0
97 47 0
97 16 0
96 45 0
96 -16 0
95 15 0
95 20 0
94 18 0
94 -15 0
93 44 0
93 -15 0
92 46 0
92 15 0
23 28 29 -90 63 77 71 80 -89 -88 -87 -86 -85 -84 -83 91 0
90 33 0
90 15 0
89 30 0
89 -16 0
88 34 0
88 16 0
87 35 0
87 16 0
86 32 0
86 -16 0
85 15 0
85 21 0
84 17 0
84 -15 0
83 31 0
83 -15 0
